unsat
(:binary-propagations  15
 :conflicts            1
 :final-checks         1
 :max-generation       1
 :max-memory           23.53
 :memory               20.89
 :mk-bool-var          490
 :mk-clause            180
 :mk-clause-binary     992
 :num-allocs           9897752
 :num-checks           1
 :propagations         15
 :quant-instantiations 175
 :restarts             1
 :rlimit-count         122290
 :time                 0.03)
